p cnf 621 736
45 46 1 70 71 0
45 46 1 70 -71 0
45 46 1 -70 72 0
45 46 1 -70 -72 0
-45 -46 1 73 74 0
-45 -46 1 73 -74 0
-45 -46 1 -73 75 0
-45 -46 1 -73 -75 0
45 -46 -1 76 77 0
45 -46 -1 76 -77 0
45 -46 -1 -76 78 0
45 -46 -1 -76 -78 0
-45 46 -1 79 80 0
-45 46 -1 79 -80 0
-45 46 -1 -79 81 0
-45 46 -1 -79 -81 0
1 47 2 82 83 0
1 47 2 82 -83 0
1 47 2 -82 84 0
1 47 2 -82 -84 0
-1 -47 2 85 86 0
-1 -47 2 85 -86 0
-1 -47 2 -85 87 0
-1 -47 2 -85 -87 0
1 -47 -2 88 89 0
1 -47 -2 88 -89 0
1 -47 -2 -88 90 0
1 -47 -2 -88 -90 0
-1 47 -2 91 92 0
-1 47 -2 91 -92 0
-1 47 -2 -91 93 0
-1 47 -2 -91 -93 0
2 48 3 94 95 0
2 48 3 94 -95 0
2 48 3 -94 96 0
2 48 3 -94 -96 0
-2 -48 3 97 98 0
-2 -48 3 97 -98 0
-2 -48 3 -97 99 0
-2 -48 3 -97 -99 0
2 -48 -3 100 101 0
2 -48 -3 100 -101 0
2 -48 -3 -100 102 0
2 -48 -3 -100 -102 0
-2 48 -3 103 104 0
-2 48 -3 103 -104 0
-2 48 -3 -103 105 0
-2 48 -3 -103 -105 0
3 49 4 106 107 0
3 49 4 106 -107 0
3 49 4 -106 108 0
3 49 4 -106 -108 0
-3 -49 4 109 110 0
-3 -49 4 109 -110 0
-3 -49 4 -109 111 0
-3 -49 4 -109 -111 0
3 -49 -4 112 113 0
3 -49 -4 112 -113 0
3 -49 -4 -112 114 0
3 -49 -4 -112 -114 0
-3 49 -4 115 116 0
-3 49 -4 115 -116 0
-3 49 -4 -115 117 0
-3 49 -4 -115 -117 0
4 50 5 118 119 0
4 50 5 118 -119 0
4 50 5 -118 120 0
4 50 5 -118 -120 0
-4 -50 5 121 122 0
-4 -50 5 121 -122 0
-4 -50 5 -121 123 0
-4 -50 5 -121 -123 0
4 -50 -5 124 125 0
4 -50 -5 124 -125 0
4 -50 -5 -124 126 0
4 -50 -5 -124 -126 0
-4 50 -5 127 128 0
-4 50 -5 127 -128 0
-4 50 -5 -127 129 0
-4 50 -5 -127 -129 0
5 51 6 130 131 0
5 51 6 130 -131 0
5 51 6 -130 132 0
5 51 6 -130 -132 0
-5 -51 6 133 134 0
-5 -51 6 133 -134 0
-5 -51 6 -133 135 0
-5 -51 6 -133 -135 0
5 -51 -6 136 137 0
5 -51 -6 136 -137 0
5 -51 -6 -136 138 0
5 -51 -6 -136 -138 0
-5 51 -6 139 140 0
-5 51 -6 139 -140 0
-5 51 -6 -139 141 0
-5 51 -6 -139 -141 0
6 52 7 142 143 0
6 52 7 142 -143 0
6 52 7 -142 144 0
6 52 7 -142 -144 0
-6 -52 7 145 146 0
-6 -52 7 145 -146 0
-6 -52 7 -145 147 0
-6 -52 7 -145 -147 0
6 -52 -7 148 149 0
6 -52 -7 148 -149 0
6 -52 -7 -148 150 0
6 -52 -7 -148 -150 0
-6 52 -7 151 152 0
-6 52 -7 151 -152 0
-6 52 -7 -151 153 0
-6 52 -7 -151 -153 0
7 53 8 154 155 0
7 53 8 154 -155 0
7 53 8 -154 156 0
7 53 8 -154 -156 0
-7 -53 8 157 158 0
-7 -53 8 157 -158 0
-7 -53 8 -157 159 0
-7 -53 8 -157 -159 0
7 -53 -8 160 161 0
7 -53 -8 160 -161 0
7 -53 -8 -160 162 0
7 -53 -8 -160 -162 0
-7 53 -8 163 164 0
-7 53 -8 163 -164 0
-7 53 -8 -163 165 0
-7 53 -8 -163 -165 0
8 54 9 166 167 0
8 54 9 166 -167 0
8 54 9 -166 168 0
8 54 9 -166 -168 0
-8 -54 9 169 170 0
-8 -54 9 169 -170 0
-8 -54 9 -169 171 0
-8 -54 9 -169 -171 0
8 -54 -9 172 173 0
8 -54 -9 172 -173 0
8 -54 -9 -172 174 0
8 -54 -9 -172 -174 0
-8 54 -9 175 176 0
-8 54 -9 175 -176 0
-8 54 -9 -175 177 0
-8 54 -9 -175 -177 0
9 55 10 178 179 0
9 55 10 178 -179 0
9 55 10 -178 180 0
9 55 10 -178 -180 0
-9 -55 10 181 182 0
-9 -55 10 181 -182 0
-9 -55 10 -181 183 0
-9 -55 10 -181 -183 0
9 -55 -10 184 185 0
9 -55 -10 184 -185 0
9 -55 -10 -184 186 0
9 -55 -10 -184 -186 0
-9 55 -10 187 188 0
-9 55 -10 187 -188 0
-9 55 -10 -187 189 0
-9 55 -10 -187 -189 0
10 56 11 190 191 0
10 56 11 190 -191 0
10 56 11 -190 192 0
10 56 11 -190 -192 0
-10 -56 11 193 194 0
-10 -56 11 193 -194 0
-10 -56 11 -193 195 0
-10 -56 11 -193 -195 0
10 -56 -11 196 197 0
10 -56 -11 196 -197 0
10 -56 -11 -196 198 0
10 -56 -11 -196 -198 0
-10 56 -11 199 200 0
-10 56 -11 199 -200 0
-10 56 -11 -199 201 0
-10 56 -11 -199 -201 0
11 57 12 202 203 0
11 57 12 202 -203 0
11 57 12 -202 204 0
11 57 12 -202 -204 0
-11 -57 12 205 206 0
-11 -57 12 205 -206 0
-11 -57 12 -205 207 0
-11 -57 12 -205 -207 0
11 -57 -12 208 209 0
11 -57 -12 208 -209 0
11 -57 -12 -208 210 0
11 -57 -12 -208 -210 0
-11 57 -12 211 212 0
-11 57 -12 211 -212 0
-11 57 -12 -211 213 0
-11 57 -12 -211 -213 0
12 58 13 214 215 0
12 58 13 214 -215 0
12 58 13 -214 216 0
12 58 13 -214 -216 0
-12 -58 13 217 218 0
-12 -58 13 217 -218 0
-12 -58 13 -217 219 0
-12 -58 13 -217 -219 0
12 -58 -13 220 221 0
12 -58 -13 220 -221 0
12 -58 -13 -220 222 0
12 -58 -13 -220 -222 0
-12 58 -13 223 224 0
-12 58 -13 223 -224 0
-12 58 -13 -223 225 0
-12 58 -13 -223 -225 0
13 59 14 226 227 0
13 59 14 226 -227 0
13 59 14 -226 228 0
13 59 14 -226 -228 0
-13 -59 14 229 230 0
-13 -59 14 229 -230 0
-13 -59 14 -229 231 0
-13 -59 14 -229 -231 0
13 -59 -14 232 233 0
13 -59 -14 232 -233 0
13 -59 -14 -232 234 0
13 -59 -14 -232 -234 0
-13 59 -14 235 236 0
-13 59 -14 235 -236 0
-13 59 -14 -235 237 0
-13 59 -14 -235 -237 0
14 60 15 238 239 0
14 60 15 238 -239 0
14 60 15 -238 240 0
14 60 15 -238 -240 0
-14 -60 15 241 242 0
-14 -60 15 241 -242 0
-14 -60 15 -241 243 0
-14 -60 15 -241 -243 0
14 -60 -15 244 245 0
14 -60 -15 244 -245 0
14 -60 -15 -244 246 0
14 -60 -15 -244 -246 0
-14 60 -15 247 248 0
-14 60 -15 247 -248 0
-14 60 -15 -247 249 0
-14 60 -15 -247 -249 0
15 61 16 250 251 0
15 61 16 250 -251 0
15 61 16 -250 252 0
15 61 16 -250 -252 0
-15 -61 16 253 254 0
-15 -61 16 253 -254 0
-15 -61 16 -253 255 0
-15 -61 16 -253 -255 0
15 -61 -16 256 257 0
15 -61 -16 256 -257 0
15 -61 -16 -256 258 0
15 -61 -16 -256 -258 0
-15 61 -16 259 260 0
-15 61 -16 259 -260 0
-15 61 -16 -259 261 0
-15 61 -16 -259 -261 0
16 62 17 262 263 0
16 62 17 262 -263 0
16 62 17 -262 264 0
16 62 17 -262 -264 0
-16 -62 17 265 266 0
-16 -62 17 265 -266 0
-16 -62 17 -265 267 0
-16 -62 17 -265 -267 0
16 -62 -17 268 269 0
16 -62 -17 268 -269 0
16 -62 -17 -268 270 0
16 -62 -17 -268 -270 0
-16 62 -17 271 272 0
-16 62 -17 271 -272 0
-16 62 -17 -271 273 0
-16 62 -17 -271 -273 0
17 63 18 274 275 0
17 63 18 274 -275 0
17 63 18 -274 276 0
17 63 18 -274 -276 0
-17 -63 18 277 278 0
-17 -63 18 277 -278 0
-17 -63 18 -277 279 0
-17 -63 18 -277 -279 0
17 -63 -18 280 281 0
17 -63 -18 280 -281 0
17 -63 -18 -280 282 0
17 -63 -18 -280 -282 0
-17 63 -18 283 284 0
-17 63 -18 283 -284 0
-17 63 -18 -283 285 0
-17 63 -18 -283 -285 0
18 64 19 286 287 0
18 64 19 286 -287 0
18 64 19 -286 288 0
18 64 19 -286 -288 0
-18 -64 19 289 290 0
-18 -64 19 289 -290 0
-18 -64 19 -289 291 0
-18 -64 19 -289 -291 0
18 -64 -19 292 293 0
18 -64 -19 292 -293 0
18 -64 -19 -292 294 0
18 -64 -19 -292 -294 0
-18 64 -19 295 296 0
-18 64 -19 295 -296 0
-18 64 -19 -295 297 0
-18 64 -19 -295 -297 0
19 65 20 298 299 0
19 65 20 298 -299 0
19 65 20 -298 300 0
19 65 20 -298 -300 0
-19 -65 20 301 302 0
-19 -65 20 301 -302 0
-19 -65 20 -301 303 0
-19 -65 20 -301 -303 0
19 -65 -20 304 305 0
19 -65 -20 304 -305 0
19 -65 -20 -304 306 0
19 -65 -20 -304 -306 0
-19 65 -20 307 308 0
-19 65 -20 307 -308 0
-19 65 -20 -307 309 0
-19 65 -20 -307 -309 0
20 66 21 310 311 0
20 66 21 310 -311 0
20 66 21 -310 312 0
20 66 21 -310 -312 0
-20 -66 21 313 314 0
-20 -66 21 313 -314 0
-20 -66 21 -313 315 0
-20 -66 21 -313 -315 0
20 -66 -21 316 317 0
20 -66 -21 316 -317 0
20 -66 -21 -316 318 0
20 -66 -21 -316 -318 0
-20 66 -21 319 320 0
-20 66 -21 319 -320 0
-20 66 -21 -319 321 0
-20 66 -21 -319 -321 0
21 67 22 322 323 0
21 67 22 322 -323 0
21 67 22 -322 324 0
21 67 22 -322 -324 0
-21 -67 22 325 326 0
-21 -67 22 325 -326 0
-21 -67 22 -325 327 0
-21 -67 22 -325 -327 0
21 -67 -22 328 329 0
21 -67 -22 328 -329 0
21 -67 -22 -328 330 0
21 -67 -22 -328 -330 0
-21 67 -22 331 332 0
-21 67 -22 331 -332 0
-21 67 -22 -331 333 0
-21 67 -22 -331 -333 0
22 68 69 334 335 0
22 68 69 334 -335 0
22 68 69 -334 336 0
22 68 69 -334 -336 0
-22 -68 69 337 338 0
-22 -68 69 337 -338 0
-22 -68 69 -337 339 0
-22 -68 69 -337 -339 0
22 -68 -69 340 341 0
22 -68 -69 340 -341 0
22 -68 -69 -340 342 0
22 -68 -69 -340 -342 0
-22 68 -69 343 344 0
-22 68 -69 343 -344 0
-22 68 -69 -343 345 0
-22 68 -69 -343 -345 0
23 68 69 346 347 0
23 68 69 346 -347 0
23 68 69 -346 348 0
23 68 69 -346 -348 0
-23 -68 69 349 350 0
-23 -68 69 349 -350 0
-23 -68 69 -349 351 0
-23 -68 69 -349 -351 0
23 -68 -69 352 353 0
23 -68 -69 352 -353 0
23 -68 -69 -352 354 0
23 -68 -69 -352 -354 0
-23 68 -69 355 356 0
-23 68 -69 355 -356 0
-23 68 -69 -355 357 0
-23 68 -69 -355 -357 0
24 67 23 358 359 0
24 67 23 358 -359 0
24 67 23 -358 360 0
24 67 23 -358 -360 0
-24 -67 23 361 362 0
-24 -67 23 361 -362 0
-24 -67 23 -361 363 0
-24 -67 23 -361 -363 0
24 -67 -23 364 365 0
24 -67 -23 364 -365 0
24 -67 -23 -364 366 0
24 -67 -23 -364 -366 0
-24 67 -23 367 368 0
-24 67 -23 367 -368 0
-24 67 -23 -367 369 0
-24 67 -23 -367 -369 0
25 66 24 370 371 0
25 66 24 370 -371 0
25 66 24 -370 372 0
25 66 24 -370 -372 0
-25 -66 24 373 374 0
-25 -66 24 373 -374 0
-25 -66 24 -373 375 0
-25 -66 24 -373 -375 0
25 -66 -24 376 377 0
25 -66 -24 376 -377 0
25 -66 -24 -376 378 0
25 -66 -24 -376 -378 0
-25 66 -24 379 380 0
-25 66 -24 379 -380 0
-25 66 -24 -379 381 0
-25 66 -24 -379 -381 0
26 65 25 382 383 0
26 65 25 382 -383 0
26 65 25 -382 384 0
26 65 25 -382 -384 0
-26 -65 25 385 386 0
-26 -65 25 385 -386 0
-26 -65 25 -385 387 0
-26 -65 25 -385 -387 0
26 -65 -25 388 389 0
26 -65 -25 388 -389 0
26 -65 -25 -388 390 0
26 -65 -25 -388 -390 0
-26 65 -25 391 392 0
-26 65 -25 391 -392 0
-26 65 -25 -391 393 0
-26 65 -25 -391 -393 0
27 64 26 394 395 0
27 64 26 394 -395 0
27 64 26 -394 396 0
27 64 26 -394 -396 0
-27 -64 26 397 398 0
-27 -64 26 397 -398 0
-27 -64 26 -397 399 0
-27 -64 26 -397 -399 0
27 -64 -26 400 401 0
27 -64 -26 400 -401 0
27 -64 -26 -400 402 0
27 -64 -26 -400 -402 0
-27 64 -26 403 404 0
-27 64 -26 403 -404 0
-27 64 -26 -403 405 0
-27 64 -26 -403 -405 0
28 63 27 406 407 0
28 63 27 406 -407 0
28 63 27 -406 408 0
28 63 27 -406 -408 0
-28 -63 27 409 410 0
-28 -63 27 409 -410 0
-28 -63 27 -409 411 0
-28 -63 27 -409 -411 0
28 -63 -27 412 413 0
28 -63 -27 412 -413 0
28 -63 -27 -412 414 0
28 -63 -27 -412 -414 0
-28 63 -27 415 416 0
-28 63 -27 415 -416 0
-28 63 -27 -415 417 0
-28 63 -27 -415 -417 0
29 62 28 418 419 0
29 62 28 418 -419 0
29 62 28 -418 420 0
29 62 28 -418 -420 0
-29 -62 28 421 422 0
-29 -62 28 421 -422 0
-29 -62 28 -421 423 0
-29 -62 28 -421 -423 0
29 -62 -28 424 425 0
29 -62 -28 424 -425 0
29 -62 -28 -424 426 0
29 -62 -28 -424 -426 0
-29 62 -28 427 428 0
-29 62 -28 427 -428 0
-29 62 -28 -427 429 0
-29 62 -28 -427 -429 0
30 61 29 430 431 0
30 61 29 430 -431 0
30 61 29 -430 432 0
30 61 29 -430 -432 0
-30 -61 29 433 434 0
-30 -61 29 433 -434 0
-30 -61 29 -433 435 0
-30 -61 29 -433 -435 0
30 -61 -29 436 437 0
30 -61 -29 436 -437 0
30 -61 -29 -436 438 0
30 -61 -29 -436 -438 0
-30 61 -29 439 440 0
-30 61 -29 439 -440 0
-30 61 -29 -439 441 0
-30 61 -29 -439 -441 0
31 60 30 442 443 0
31 60 30 442 -443 0
31 60 30 -442 444 0
31 60 30 -442 -444 0
-31 -60 30 445 446 0
-31 -60 30 445 -446 0
-31 -60 30 -445 447 0
-31 -60 30 -445 -447 0
31 -60 -30 448 449 0
31 -60 -30 448 -449 0
31 -60 -30 -448 450 0
31 -60 -30 -448 -450 0
-31 60 -30 451 452 0
-31 60 -30 451 -452 0
-31 60 -30 -451 453 0
-31 60 -30 -451 -453 0
32 59 31 454 455 0
32 59 31 454 -455 0
32 59 31 -454 456 0
32 59 31 -454 -456 0
-32 -59 31 457 458 0
-32 -59 31 457 -458 0
-32 -59 31 -457 459 0
-32 -59 31 -457 -459 0
32 -59 -31 460 461 0
32 -59 -31 460 -461 0
32 -59 -31 -460 462 0
32 -59 -31 -460 -462 0
-32 59 -31 463 464 0
-32 59 -31 463 -464 0
-32 59 -31 -463 465 0
-32 59 -31 -463 -465 0
33 58 32 466 467 0
33 58 32 466 -467 0
33 58 32 -466 468 0
33 58 32 -466 -468 0
-33 -58 32 469 470 0
-33 -58 32 469 -470 0
-33 -58 32 -469 471 0
-33 -58 32 -469 -471 0
33 -58 -32 472 473 0
33 -58 -32 472 -473 0
33 -58 -32 -472 474 0
33 -58 -32 -472 -474 0
-33 58 -32 475 476 0
-33 58 -32 475 -476 0
-33 58 -32 -475 477 0
-33 58 -32 -475 -477 0
34 57 33 478 479 0
34 57 33 478 -479 0
34 57 33 -478 480 0
34 57 33 -478 -480 0
-34 -57 33 481 482 0
-34 -57 33 481 -482 0
-34 -57 33 -481 483 0
-34 -57 33 -481 -483 0
34 -57 -33 484 485 0
34 -57 -33 484 -485 0
34 -57 -33 -484 486 0
34 -57 -33 -484 -486 0
-34 57 -33 487 488 0
-34 57 -33 487 -488 0
-34 57 -33 -487 489 0
-34 57 -33 -487 -489 0
35 56 34 490 491 0
35 56 34 490 -491 0
35 56 34 -490 492 0
35 56 34 -490 -492 0
-35 -56 34 493 494 0
-35 -56 34 493 -494 0
-35 -56 34 -493 495 0
-35 -56 34 -493 -495 0
35 -56 -34 496 497 0
35 -56 -34 496 -497 0
35 -56 -34 -496 498 0
35 -56 -34 -496 -498 0
-35 56 -34 499 500 0
-35 56 -34 499 -500 0
-35 56 -34 -499 501 0
-35 56 -34 -499 -501 0
36 55 35 502 503 0
36 55 35 502 -503 0
36 55 35 -502 504 0
36 55 35 -502 -504 0
-36 -55 35 505 506 0
-36 -55 35 505 -506 0
-36 -55 35 -505 507 0
-36 -55 35 -505 -507 0
36 -55 -35 508 509 0
36 -55 -35 508 -509 0
36 -55 -35 -508 510 0
36 -55 -35 -508 -510 0
-36 55 -35 511 512 0
-36 55 -35 511 -512 0
-36 55 -35 -511 513 0
-36 55 -35 -511 -513 0
37 54 36 514 515 0
37 54 36 514 -515 0
37 54 36 -514 516 0
37 54 36 -514 -516 0
-37 -54 36 517 518 0
-37 -54 36 517 -518 0
-37 -54 36 -517 519 0
-37 -54 36 -517 -519 0
37 -54 -36 520 521 0
37 -54 -36 520 -521 0
37 -54 -36 -520 522 0
37 -54 -36 -520 -522 0
-37 54 -36 523 524 0
-37 54 -36 523 -524 0
-37 54 -36 -523 525 0
-37 54 -36 -523 -525 0
38 53 37 526 527 0
38 53 37 526 -527 0
38 53 37 -526 528 0
38 53 37 -526 -528 0
-38 -53 37 529 530 0
-38 -53 37 529 -530 0
-38 -53 37 -529 531 0
-38 -53 37 -529 -531 0
38 -53 -37 532 533 0
38 -53 -37 532 -533 0
38 -53 -37 -532 534 0
38 -53 -37 -532 -534 0
-38 53 -37 535 536 0
-38 53 -37 535 -536 0
-38 53 -37 -535 537 0
-38 53 -37 -535 -537 0
39 52 38 538 539 0
39 52 38 538 -539 0
39 52 38 -538 540 0
39 52 38 -538 -540 0
-39 -52 38 541 542 0
-39 -52 38 541 -542 0
-39 -52 38 -541 543 0
-39 -52 38 -541 -543 0
39 -52 -38 544 545 0
39 -52 -38 544 -545 0
39 -52 -38 -544 546 0
39 -52 -38 -544 -546 0
-39 52 -38 547 548 0
-39 52 -38 547 -548 0
-39 52 -38 -547 549 0
-39 52 -38 -547 -549 0
40 51 39 550 551 0
40 51 39 550 -551 0
40 51 39 -550 552 0
40 51 39 -550 -552 0
-40 -51 39 553 554 0
-40 -51 39 553 -554 0
-40 -51 39 -553 555 0
-40 -51 39 -553 -555 0
40 -51 -39 556 557 0
40 -51 -39 556 -557 0
40 -51 -39 -556 558 0
40 -51 -39 -556 -558 0
-40 51 -39 559 560 0
-40 51 -39 559 -560 0
-40 51 -39 -559 561 0
-40 51 -39 -559 -561 0
41 50 40 562 563 0
41 50 40 562 -563 0
41 50 40 -562 564 0
41 50 40 -562 -564 0
-41 -50 40 565 566 0
-41 -50 40 565 -566 0
-41 -50 40 -565 567 0
-41 -50 40 -565 -567 0
41 -50 -40 568 569 0
41 -50 -40 568 -569 0
41 -50 -40 -568 570 0
41 -50 -40 -568 -570 0
-41 50 -40 571 572 0
-41 50 -40 571 -572 0
-41 50 -40 -571 573 0
-41 50 -40 -571 -573 0
42 49 41 574 575 0
42 49 41 574 -575 0
42 49 41 -574 576 0
42 49 41 -574 -576 0
-42 -49 41 577 578 0
-42 -49 41 577 -578 0
-42 -49 41 -577 579 0
-42 -49 41 -577 -579 0
42 -49 -41 580 581 0
42 -49 -41 580 -581 0
42 -49 -41 -580 582 0
42 -49 -41 -580 -582 0
-42 49 -41 583 584 0
-42 49 -41 583 -584 0
-42 49 -41 -583 585 0
-42 49 -41 -583 -585 0
43 48 42 586 587 0
43 48 42 586 -587 0
43 48 42 -586 588 0
43 48 42 -586 -588 0
-43 -48 42 589 590 0
-43 -48 42 589 -590 0
-43 -48 42 -589 591 0
-43 -48 42 -589 -591 0
43 -48 -42 592 593 0
43 -48 -42 592 -593 0
43 -48 -42 -592 594 0
43 -48 -42 -592 -594 0
-43 48 -42 595 596 0
-43 48 -42 595 -596 0
-43 48 -42 -595 597 0
-43 48 -42 -595 -597 0
44 47 43 598 599 0
44 47 43 598 -599 0
44 47 43 -598 600 0
44 47 43 -598 -600 0
-44 -47 43 601 602 0
-44 -47 43 601 -602 0
-44 -47 43 -601 603 0
-44 -47 43 -601 -603 0
44 -47 -43 604 605 0
44 -47 -43 604 -605 0
44 -47 -43 -604 606 0
44 -47 -43 -604 -606 0
-44 47 -43 607 608 0
-44 47 -43 607 -608 0
-44 47 -43 -607 609 0
-44 47 -43 -607 -609 0
45 46 -44 610 611 0
45 46 -44 610 -611 0
45 46 -44 -610 612 0
45 46 -44 -610 -612 0
-45 -46 -44 613 614 0
-45 -46 -44 613 -614 0
-45 -46 -44 -613 615 0
-45 -46 -44 -613 -615 0
45 -46 44 616 617 0
45 -46 44 616 -617 0
45 -46 44 -616 618 0
45 -46 44 -616 -618 0
-45 46 44 619 620 0
-45 46 44 619 -620 0
-45 46 44 -619 621 0
-45 46 44 -619 -621 0

